c "555839.clq"
p edge 100 1344
e 1 17
e 1 18
e 1 19
e 1 20
e 1 21
e 1 22
e 1 24
e 1 25
e 1 27
e 1 28
e 1 31
e 1 32
e 1 34
e 1 36
e 1 38
e 1 51
e 1 59
e 1 61
e 1 62
e 1 64
e 1 73
e 1 74
e 1 77
e 1 79
e 1 86
e 1 97
e 2 17
e 2 18
e 2 19
e 2 20
e 2 25
e 2 27
e 2 28
e 2 29
e 2 30
e 2 32
e 2 38
e 2 42
e 2 43
e 2 48
e 2 51
e 2 55
e 2 56
e 2 63
e 2 67
e 2 71
e 2 73
e 2 76
e 2 77
e 2 80
e 3 17
e 3 18
e 3 19
e 3 20
e 3 22
e 3 23
e 3 24
e 3 26
e 3 27
e 3 31
e 3 35
e 3 40
e 3 51
e 3 52
e 3 56
e 3 61
e 3 65
e 3 70
e 3 84
e 3 89
e 3 93
e 4 17
e 4 18
e 4 19
e 4 20
e 4 21
e 4 22
e 4 23
e 4 24
e 4 25
e 4 26
e 4 29
e 4 32
e 4 34
e 4 37
e 4 40
e 4 42
e 4 46
e 4 50
e 4 51
e 4 57
e 4 59
e 4 61
e 4 69
e 4 70
e 4 76
e 4 84
e 4 86
e 4 96
e 4 100
e 5 17
e 5 18
e 5 19
e 5 21
e 5 23
e 5 24
e 5 25
e 5 26
e 5 30
e 5 35
e 5 37
e 5 40
e 5 41
e 5 42
e 5 45
e 5 49
e 5 55
e 5 57
e 5 65
e 5 67
e 5 78
e 5 79
e 5 85
e 5 91
e 5 94
e 5 96
e 6 17
e 6 18
e 6 19
e 6 20
e 6 21
e 6 22
e 6 23
e 6 24
e 6 25
e 6 26
e 6 28
e 6 32
e 6 36
e 6 40
e 6 42
e 6 43
e 6 52
e 6 55
e 6 62
e 6 63
e 6 64
e 6 70
e 6 73
e 6 74
e 6 78
e 6 83
e 6 87
e 6 88
e 6 89
e 6 90
e 6 96
e 7 17
e 7 18
e 7 19
e 7 20
e 7 21
e 7 22
e 7 27
e 7 28
e 7 30
e 7 33
e 7 35
e 7 41
e 7 44
e 7 52
e 7 61
e 7 66
e 7 75
e 7 76
e 7 81
e 7 83
e 7 87
e 7 96
e 7 99
e 8 17
e 8 18
e 8 19
e 8 20
e 8 22
e 8 23
e 8 25
e 8 26
e 8 27
e 8 29
e 8 31
e 8 32
e 8 33
e 8 35
e 8 39
e 8 43
e 8 46
e 8 48
e 8 53
e 8 57
e 8 60
e 8 61
e 8 62
e 8 63
e 8 64
e 8 67
e 8 70
e 8 71
e 8 73
e 8 76
e 8 87
e 8 89
e 8 91
e 8 95
e 8 96
e 9 17
e 9 18
e 9 19
e 9 20
e 9 21
e 9 22
e 9 24
e 9 25
e 9 29
e 9 31
e 9 32
e 9 35
e 9 37
e 9 40
e 9 46
e 9 47
e 9 48
e 9 53
e 9 55
e 9 57
e 9 59
e 9 68
e 9 69
e 9 73
e 9 79
e 9 80
e 9 81
e 9 89
e 9 91
e 9 95
e 9 96
e 9 100
e 10 17
e 10 18
e 10 19
e 10 20
e 10 21
e 10 22
e 10 23
e 10 24
e 10 26
e 10 28
e 10 30
e 10 31
e 10 32
e 10 33
e 10 37
e 10 39
e 10 40
e 10 43
e 10 45
e 10 47
e 10 64
e 10 65
e 10 71
e 10 79
e 10 81
e 10 92
e 11 17
e 11 18
e 11 21
e 11 23
e 11 24
e 11 26
e 11 27
e 11 28
e 11 29
e 11 30
e 11 31
e 11 33
e 11 34
e 11 35
e 11 37
e 11 38
e 11 41
e 11 42
e 11 52
e 11 64
e 11 65
e 11 93
e 12 17
e 12 18
e 12 19
e 12 20
e 12 28
e 12 30
e 12 31
e 12 33
e 12 43
e 12 50
e 12 59
e 12 60
e 12 64
e 12 66
e 12 77
e 12 78
e 12 79
e 12 80
e 12 82
e 12 83
e 12 87
e 12 92
e 13 17
e 13 18
e 13 19
e 13 20
e 13 21
e 13 23
e 13 24
e 13 26
e 13 28
e 13 36
e 13 37
e 13 39
e 13 43
e 13 46
e 13 48
e 13 51
e 13 52
e 13 53
e 13 55
e 13 63
e 13 67
e 13 70
e 13 72
e 13 74
e 13 76
e 13 84
e 13 92
e 14 17
e 14 18
e 14 19
e 14 20
e 14 21
e 14 22
e 14 23
e 14 25
e 14 28
e 14 34
e 14 35
e 14 48
e 14 50
e 14 57
e 14 58
e 14 68
e 14 73
e 14 81
e 14 94
e 14 97
e 15 17
e 15 21
e 15 22
e 15 25
e 15 30
e 15 34
e 15 36
e 15 58
e 15 59
e 15 76
e 15 98
e 16 17
e 16 18
e 16 19
e 16 20
e 16 21
e 16 22
e 16 23
e 16 36
e 16 39
e 16 41
e 16 48
e 16 55
e 16 56
e 16 67
e 16 68
e 16 71
e 16 73
e 16 78
e 16 80
e 16 82
e 16 88
e 16 93
e 16 94
e 17 18
e 17 19
e 17 20
e 17 21
e 17 22
e 17 23
e 17 24
e 17 26
e 17 27
e 17 29
e 17 30
e 17 31
e 17 32
e 17 33
e 17 34
e 17 35
e 17 37
e 17 38
e 17 40
e 17 41
e 17 42
e 17 43
e 17 44
e 17 46
e 17 48
e 17 53
e 17 55
e 17 56
e 17 60
e 17 61
e 17 62
e 17 63
e 17 65
e 17 67
e 17 68
e 17 69
e 17 70
e 17 72
e 17 73
e 17 77
e 17 79
e 17 81
e 17 84
e 17 87
e 17 89
e 17 92
e 17 93
e 17 94
e 17 98
e 17 100
e 18 19
e 18 20
e 18 21
e 18 22
e 18 23
e 18 24
e 18 25
e 18 26
e 18 27
e 18 29
e 18 30
e 18 31
e 18 32
e 18 33
e 18 34
e 18 35
e 18 36
e 18 37
e 18 38
e 18 39
e 18 40
e 18 42
e 18 43
e 18 44
e 18 45
e 18 49
e 18 50
e 18 52
e 18 53
e 18 54
e 18 56
e 18 57
e 18 58
e 18 59
e 18 63
e 18 64
e 18 66
e 18 69
e 18 71
e 18 72
e 18 73
e 18 75
e 18 76
e 18 77
e 18 78
e 18 81
e 18 84
e 18 85
e 18 88
e 18 89
e 18 90
e 18 93
e 18 94
e 18 97
e 18 98
e 18 100
e 19 20
e 19 21
e 19 22
e 19 23
e 19 24
e 19 25
e 19 26
e 19 27
e 19 28
e 19 29
e 19 31
e 19 34
e 19 36
e 19 38
e 19 39
e 19 42
e 19 43
e 19 44
e 19 45
e 19 48
e 19 49
e 19 51
e 19 53
e 19 55
e 19 56
e 19 58
e 19 60
e 19 61
e 19 64
e 19 65
e 19 67
e 19 68
e 19 69
e 19 70
e 19 71
e 19 72
e 19 75
e 19 78
e 19 81
e 19 84
e 19 88
e 19 89
e 19 90
e 19 93
e 19 98
e 19 99
e 20 21
e 20 22
e 20 23
e 20 24
e 20 25
e 20 26
e 20 27
e 20 29
e 20 30
e 20 33
e 20 34
e 20 35
e 20 36
e 20 37
e 20 38
e 20 40
e 20 41
e 20 43
e 20 44
e 20 45
e 20 47
e 20 48
e 20 49
e 20 50
e 20 51
e 20 52
e 20 54
e 20 57
e 20 58
e 20 64
e 20 68
e 20 69
e 20 71
e 20 74
e 20 76
e 20 78
e 20 80
e 20 87
e 20 89
e 20 90
e 20 96
e 20 98
e 20 99
e 21 22
e 21 23
e 21 24
e 21 25
e 21 26
e 21 27
e 21 28
e 21 29
e 21 32
e 21 33
e 21 34
e 21 36
e 21 37
e 21 38
e 21 39
e 21 40
e 21 41
e 21 45
e 21 46
e 21 49
e 21 52
e 21 54
e 21 60
e 21 61
e 21 75
e 21 78
e 21 79
e 21 81
e 21 84
e 21 86
e 21 93
e 21 94
e 21 99
e 21 100
e 22 23
e 22 24
e 22 25
e 22 26
e 22 27
e 22 28
e 22 29
e 22 30
e 22 31
e 22 32
e 22 33
e 22 34
e 22 35
e 22 37
e 22 38
e 22 39
e 22 41
e 22 42
e 22 44
e 22 45
e 22 46
e 22 47
e 22 48
e 22 49
e 22 50
e 22 52
e 22 53
e 22 55
e 22 60
e 22 61
e 22 62
e 22 66
e 22 67
e 22 68
e 22 75
e 22 79
e 22 80
e 22 85
e 22 90
e 22 91
e 22 92
e 22 93
e 22 97
e 23 24
e 23 25
e 23 26
e 23 27
e 23 28
e 23 29
e 23 30
e 23 32
e 23 33
e 23 34
e 23 37
e 23 41
e 23 42
e 23 45
e 23 46
e 23 48
e 23 49
e 23 50
e 23 51
e 23 52
e 23 55
e 23 56
e 23 57
e 23 59
e 23 62
e 23 64
e 23 70
e 23 71
e 23 72
e 23 74
e 23 75
e 23 76
e 23 79
e 23 81
e 23 82
e 23 83
e 23 84
e 23 90
e 23 92
e 23 94
e 23 97
e 23 99
e 24 25
e 24 27
e 24 28
e 24 30
e 24 31
e 24 32
e 24 33
e 24 35
e 24 36
e 24 37
e 24 42
e 24 44
e 24 46
e 24 53
e 24 54
e 24 56
e 24 59
e 24 62
e 24 63
e 24 65
e 24 66
e 24 69
e 24 70
e 24 73
e 24 74
e 24 75
e 24 76
e 24 77
e 24 85
e 24 86
e 24 88
e 24 91
e 24 95
e 24 97
e 24 99
e 24 100
e 25 26
e 25 27
e 25 28
e 25 29
e 25 30
e 25 32
e 25 33
e 25 34
e 25 36
e 25 38
e 25 40
e 25 41
e 25 42
e 25 44
e 25 45
e 25 48
e 25 49
e 25 51
e 25 53
e 25 54
e 25 56
e 25 61
e 25 63
e 25 67
e 25 71
e 25 72
e 25 75
e 25 77
e 25 80
e 25 81
e 25 85
e 26 27
e 26 29
e 26 31
e 26 33
e 26 35
e 26 37
e 26 38
e 26 39
e 26 41
e 26 42
e 26 43
e 26 48
e 26 50
e 26 51
e 26 54
e 26 55
e 26 58
e 26 60
e 26 61
e 26 62
e 26 66
e 26 68
e 26 70
e 26 71
e 26 72
e 26 76
e 26 77
e 26 80
e 26 81
e 26 82
e 26 86
e 26 88
e 26 90
e 26 92
e 26 94
e 26 98
e 27 28
e 27 29
e 27 31
e 27 32
e 27 34
e 27 39
e 27 40
e 27 41
e 27 42
e 27 43
e 27 46
e 27 47
e 27 50
e 27 51
e 27 55
e 27 56
e 27 57
e 27 58
e 27 67
e 27 72
e 27 75
e 27 78
e 27 81
e 27 91
e 27 98
e 27 99
e 28 29
e 28 30
e 28 31
e 28 32
e 28 34
e 28 36
e 28 39
e 28 45
e 28 47
e 28 49
e 28 50
e 28 54
e 28 57
e 28 69
e 28 81
e 28 93
e 28 99
e 29 30
e 29 31
e 29 35
e 29 36
e 29 43
e 29 47
e 29 48
e 29 54
e 29 55
e 29 58
e 29 59
e 29 60
e 29 62
e 29 68
e 29 98
e 30 33
e 30 35
e 30 37
e 30 38
e 30 41
e 30 42
e 30 43
e 30 45
e 30 46
e 30 47
e 30 50
e 30 56
e 30 59
e 30 86
e 30 93
e 30 100
e 31 33
e 31 36
e 31 37
e 31 38
e 31 39
e 31 44
e 31 46
e 31 47
e 31 49
e 31 56
e 31 57
e 31 62
e 31 74
e 31 83
e 31 85
e 31 100
e 32 39
e 32 44
e 32 46
e 32 48
e 32 51
e 32 58
e 32 66
e 32 73
e 32 78
e 32 88
e 32 95
e 33 34
e 33 39
e 33 41
e 33 44
e 33 46
e 33 47
e 33 49
e 33 58
e 33 59
e 33 60
e 33 62
e 33 64
e 33 68
e 33 69
e 33 78
e 33 79
e 33 82
e 33 87
e 33 92
e 34 35
e 34 36
e 34 40
e 34 41
e 34 42
e 34 47
e 34 52
e 34 53
e 34 54
e 34 56
e 34 59
e 34 61
e 34 64
e 34 65
e 34 71
e 34 77
e 34 79
e 34 84
e 34 85
e 34 87
e 34 90
e 34 91
e 35 36
e 35 38
e 35 39
e 35 40
e 35 41
e 35 43
e 35 44
e 35 45
e 35 49
e 35 53
e 35 54
e 35 60
e 35 69
e 35 71
e 35 83
e 35 92
e 35 94
e 35 98
e 35 99
e 36 38
e 36 44
e 36 49
e 36 50
e 36 52
e 36 54
e 36 56
e 36 58
e 36 60
e 36 67
e 36 68
e 36 74
e 36 83
e 36 84
e 36 85
e 36 86
e 36 88
e 36 95
e 36 96
e 36 98
e 36 99
e 36 100
e 37 38
e 37 40
e 37 44
e 37 45
e 37 46
e 37 50
e 37 54
e 37 60
e 37 64
e 37 66
e 37 69
e 37 80
e 37 81
e 37 89
e 37 97
e 37 99
e 38 39
e 38 40
e 38 43
e 38 55
e 38 60
e 38 64
e 38 65
e 38 66
e 38 70
e 38 71
e 38 82
e 38 84
e 38 87
e 38 98
e 39 47
e 39 62
e 39 67
e 39 77
e 39 79
e 39 80
e 39 85
e 39 91
e 40 44
e 40 45
e 40 53
e 40 55
e 40 57
e 40 58
e 40 60
e 40 61
e 40 65
e 40 68
e 40 77
e 40 82
e 40 83
e 40 86
e 40 94
e 40 95
e 40 97
e 40 99
e 41 46
e 41 47
e 41 50
e 41 56
e 41 66
e 41 69
e 41 71
e 41 78
e 41 82
e 41 90
e 41 96
e 42 45
e 42 48
e 42 49
e 42 50
e 42 57
e 42 59
e 42 60
e 42 65
e 42 66
e 42 70
e 42 76
e 42 85
e 42 86
e 42 87
e 42 90
e 42 92
e 43 44
e 43 47
e 43 51
e 43 52
e 43 54
e 43 58
e 43 66
e 43 72
e 43 73
e 43 77
e 43 80
e 43 84
e 44 45
e 44 47
e 44 49
e 44 52
e 44 53
e 44 61
e 44 67
e 44 68
e 44 69
e 44 75
e 44 79
e 44 80
e 44 84
e 44 85
e 44 86
e 44 87
e 44 88
e 44 95
e 44 97
e 45 51
e 45 53
e 45 55
e 45 58
e 45 59
e 45 63
e 45 65
e 45 75
e 45 84
e 46 47
e 46 52
e 46 54
e 46 58
e 46 60
e 46 64
e 46 65
e 46 72
e 46 83
e 46 87
e 46 92
e 46 96
e 47 50
e 47 53
e 47 64
e 47 82
e 47 88
e 47 89
e 47 92
e 48 49
e 48 51
e 48 54
e 48 59
e 48 62
e 48 63
e 48 65
e 48 68
e 48 84
e 49 51
e 49 53
e 49 57
e 49 62
e 49 63
e 49 65
e 49 66
e 49 72
e 49 73
e 49 76
e 49 85
e 49 93
e 50 52
e 50 54
e 50 56
e 50 59
e 50 69
e 50 71
e 50 72
e 50 74
e 50 86
e 50 95
e 51 61
e 51 62
e 51 67
e 51 69
e 51 84
e 51 91
e 51 100
e 52 57
e 52 63
e 52 66
e 52 70
e 52 74
e 52 80
e 52 83
e 52 89
e 52 95
e 52 97
e 53 72
e 53 73
e 53 87
e 53 91
e 53 94
e 53 95
e 54 63
e 54 70
e 54 75
e 54 78
e 54 82
e 54 90
e 54 91
e 54 93
e 54 97
e 54 98
e 54 99
e 55 57
e 55 58
e 55 62
e 55 63
e 55 81
e 55 82
e 55 91
e 55 92
e 55 94
e 55 96
e 55 97
e 56 72
e 56 79
e 56 83
e 57 61
e 57 65
e 57 67
e 57 68
e 57 76
e 57 80
e 57 89
e 57 100
e 58 75
e 58 82
e 58 83
e 58 87
e 59 66
e 59 68
e 59 73
e 59 75
e 59 81
e 59 83
e 59 86
e 59 90
e 59 98
e 60 63
e 60 74
e 60 86
e 60 88
e 61 63
e 61 69
e 61 70
e 61 76
e 61 85
e 61 90
e 61 95
e 61 100
e 62 74
e 62 75
e 62 82
e 62 90
e 62 93
e 63 66
e 63 72
e 63 74
e 63 87
e 63 90
e 64 70
e 64 72
e 64 73
e 64 78
e 64 80
e 64 86
e 64 91
e 64 92
e 64 93
e 64 94
e 65 67
e 66 76
e 66 77
e 66 89
e 66 94
e 66 99
e 68 74
e 68 83
e 69 74
e 69 75
e 69 78
e 69 83
e 69 85
e 69 95
e 70 71
e 70 88
e 70 95
e 70 100
e 71 77
e 71 80
e 71 82
e 71 85
e 72 77
e 72 78
e 72 79
e 72 85
e 73 74
e 73 82
e 73 83
e 73 93
e 73 94
e 75 77
e 75 82
e 75 87
e 75 88
e 75 89
e 75 95
e 76 97
e 77 89
e 77 96
e 78 79
e 79 90
e 79 93
e 79 96
e 80 91
e 80 95
e 80 96
e 81 88
e 81 92
e 81 97
e 82 86
e 82 88
e 82 95
e 82 98
e 83 86
e 83 88
e 83 91
e 83 96
e 83 98
e 83 99
e 84 99
e 85 100
e 86 97
e 87 89
e 87 91
e 87 96
e 88 92
e 88 97
e 88 100
e 90 94
e 90 100
e 93 98
